proyfinal/src/viki/013/andrea/andrea-localstore/experimentInOfficeAgust.take6/worker_6/c2e5c7dd-49c4-4fe5-8ee7-501658109ad3.als.cnf.out
Reading from standard input... Use '--help' for help.
============================[ Problem Statistics ]=============================
|                                                                             |
|  Number of variables:         87638                                         |
|  Number of clauses:          161767                                         |
|  Parse time:                   0.03 s                                       |
|                                                                             |
============================[ Search Statistics ]==============================
| Conflicts |          ORIGINAL         |          LEARNT          | Progress |
|           |    Vars  Clauses Literals |    Limit  Clauses Lit/Cl |          |
===============================================================================
|       100 |   62286   104903   262044 |    38464      100     10 | 28.928 % |
|       250 |   62286   104903   262044 |    42310      250     25 | 28.928 % |
|       475 |   62286   104903   262044 |    46541      475     63 | 28.928 % |
|       812 |   62286   104903   262044 |    51196      812     56 | 28.928 % |
|      1318 |   62285   104859   261954 |    56315     1317     62 | 28.929 % |
|      2077 |   62285   104859   261954 |    61947     2076     65 | 28.929 % |
|      3216 |   62285   104859   261954 |    68142     3215     71 | 28.929 % |
|      4924 |   62247   104705   261563 |    74956     4764     81 | 28.973 % |
|      7486 |   62227   104621   261370 |    82451     6791     84 | 28.996 % |
|     11330 |   49495    67038   169312 |    90697     9940     78 | 43.523 % |
===============================================================================
restarts              : 62
conflicts             : 14876          (6884 /sec)
decisions             : 48602          (0.00 % random) (22491 /sec)
propagations          : 23066382       (10673954 /sec)
conflict literals     : 977835         (51.61 % deleted)
Memory used           : 40.72 MB
CPU time              : 2.161 s

UNSATISFIABLE
